000 003 000 000 000 000 000 000 -99 -99 -99 -99 000 000 000 000 -99 -99 000 000 -99 001 004 -99 -99 000 -99 -99 -99 -99 -99
000 000 000 000 000 000 000 000 000 -99 -99 -99 -99 000 000 000 000 -99 -99 000 000 000 004 011 -99 -99 -99 -99 -99 -99 -99
-99 000 000 000 000 000 -99 000 000 000 -99 -99 -99 -99 000 000 -99 -99 -99 -99 000 000 001 003 -99 -99 000 -99 -99 -99 -99
-99 000 000 000 000 000 000 000 000 000 000 -99 -99 -99 000 000 000 -99 -99 000 000 000 000 001 000 000 000 -99 -99 -99 -99
000 000 000 000 -99 000 000 000 000 000 000 -99 000 000 -99 -99 -99 000 -99 -99 000 000 000 000 000 000 -99 -99 -99 -99 -99
000 000 000 000 -99 000 000 000 000 000 000 -99 000 -99 -99 -99 000 000 -99 -99 000 000 000 000 000 000 -99 -99 -99 -99 -99
000 000 000 -99 -99 -99 000 000 000 000 000 000 -99 000 -99 -99 000 000 -99 -99 000 000 000 000 000 000 -99 -99 -99 -99 -99
-99 000 000 000 -99 -99 -99 000 000 000 000 000 -99 -99 -99 -99 000 000 000 -99 -99 000 000 000 000 000 -99 -99 -99 000 -99
000 000 000 000 000 -99 -99 000 000 000 000 000 -99 -99 -99 000 -99 000 000 -99 -99 -99 -99 000 000 000 -99 -99 -99 000 000
000 000 000 000 000 -99 -99 000 000 000 000 000 -99 -99 000 000 -99 000 000 -99 -99 -99 -99 -99 000 000 -99 -99 -99 000 000
000 000 000 000 000 -99 -99 000 000 000 000 000 000 -99 000 000 -99 -99 000 -99 000 -99 -99 -99 000 000 -99 -99 -99 000 000
000 000 000 000 000 -99 -99 -99 -99 000 000 000 -99 -99 000 000 -99 -99 000 000 000 -99 -99 000 000 -99 005 003 002 000 000
000 000 000 000 000 -99 000 000 000 000 000 000 -99 -99 -99 -99 -99 -99 000 000 000 -99 -99 -99 000 000 -99 002 000 000 000
000 000 000 000 000 000 000 000 000 -99 -99 000 -99 -99 -99 -99 -99 -99 000 000 000 -99 -99 000 000 -99 -99 000 000 -99 000
000 -99 000 000 000 000 000 000 000 000 -99 -99 -99 000 000 -99 000 -99 000 000 -99 000 -99 000 000 -99 -99 000 -99 -99 -99
-99 -99 000 000 000 000 000 000 000 000 -99 -99 -99 000 000 000 000 000 000 000 -99 000 -99 000 000 -99 -99 -99 -99 -99 -99
000 -99 -99 -99 000 000 000 000 000 000 -99 -99 -99 000 000 000 000 000 000 000 -99 000 000 000 000 000 000 -99 -99 000 -99
000 000 -99 -99 -99 -99 000 000 000 000 -99 000 -99 -99 000 000 000 000 000 -99 -99 -99 000 -99 -99 000 000 -99 -99 000 -99
000 000 000 -99 -99 -99 -99 000 000 000 000 000 -99 000 000 000 000 000 000 -99 -99 000 000 -99 -99 -99 000 -99 -99 000 -99
000 000 000 000 -99 -99 -99 000 000 000 000 000 -99 000 000 000 000 000 000 -99 -99 000 000 -99 -99 -99 -99 -99 -99 -99 -99
000 000 000 000 000 -99 -99 -99 000 000 000 -99 -99 000 -99 000 000 -99 000 000 -99 000 000 -99 -99 -99 -99 -99 -99 -99 -99
000 000 000 000 000 -99 -99 000 000 000 000 -99 -99 000 000 000 000 -99 000 000 000 000 000 -99 -99 -99 -99 -99 -99 -99 -99
000 000 000 000 000 000 -99 000 000 000 000 -99 -99 000 000 000 000 -99 000 000 000 000 000 -99 -99 -99 -99 -99 -99 -99 -99
000 000 000 000 000 000 -99 000 000 -99 -99 -99 -99 000 000 000 000 000 000 000 000 000 000 -99 -99 -99 -99 -99 -99 -99 -99
000 000 000 000 000 000 000 000 000 -99 -99 -99 000 000 000 000 000 000 000 000 000 000 000 -99 -99 -99 -99 -99 -99 -99 -99
000 000 000 000 000 000 000 000 000 -99 -99 -99 -99 000 000 000 000 000 000 000 000 000 -99 -99 -99 -99 -99 -99 -99 -99 000
000 000 000 000 000 000 000 000 000 000 -99 -99 -99 000 000 000 000 000 000 000 000 000 -99 -99 -99 -99 -99 -99 -99 -99 000
000 000 000 000 000 000 000 000 000 000 -99 -99 000 000 000 000 000 000 000 000 000 000 -99 -99 -99 -99 -99 -99 -99 -99 000
000 000 000 000 000 000 000 000 000 000 -99 -99 -99 000 000 -99 000 000 000 000 000 000 -99 -99 -99 -99 -99 -99 -99 -99 -99
000 000 000 000 000 000 000 000 000 000 000 -99 -99 000 000 000 -99 000 000 000 000 000 -99 -99 -99 -99 -99 -99 -99 -99 -99
000 000 000 000 000 000 000 000 000 000 -99 -99 -99 000 000 -99 -99 000 000 -99 000 000 -99 000 -99 -99 -99 -99 -99 -99 -99
000 000 000 000 000 000 000 000 000 000 -99 -99 -99 000 000 -99 -99 000 000 -99 -99 000 -99 000 -99 -99 -99 -99 -99 -99 000
000 000 000 000 000 000 000 000 000 000 -99 -99 -99 000 000 -99 000 000 -99 -99 -99 000 000 000 000 -99 -99 -99 -99 000 000
000 000 000 000 000 000 000 000 000 000 -99 -99 -99 000 000 -99 000 000 -99 -99 000 000 000 000 000 000 -99 000 000 000 000
000 000 000 000 000 000 000 000 000 000 -99 -99 000 000 000 000 000 -99 -99 000 000 -99 000 000 000 000 000 000 000 000 000
000 000 000 000 000 000 000 000 000 000 -99 -99 000 000 000 000 -99 -99 -99 000 000 000 000 000 000 000 000 000 000 000 000
000 000 -99 000 000 000 000 000 000 000 000 000 000 000 000 000 000 -99 -99 -99 000 000 -99 000 000 000 000 000 000 000 000
000 -99 000 000 000 000 000 000 000 -99 -99 000 000 000 000 000 000 -99 -99 -99 000 -99 -99 000 000 000 000 000 000 000 000
000 000 000 000 000 000 000 000 -99 -99 -99 -99 000 000 000 000 000 -99 -99 000 000 -99 -99 -99 000 000 000 000 -99 -99 -99
000 000 000 000 000 -99 -99 -99 -99 -99 -99 000 000 000 000 000 000 -99 -99 000 000 -99 -99 000 000 000 000 000 -99 -99 -99
-99 000 -99 -99 -99 -99 -99 -99 -99 000 000 000 000 000 000 000 000 -99 000 000 -99 -99 -99 000 000 000 000 000 -99 -99 -99
000 000 -99 -99 -99 -99 -99 000 000 000 000 000 000 000 000 000 -99 000 000 000 -99 -99 -99 -99 -99 000 000 -99 -99 -99 -99
000 000 -99 -99 -99 000 000 -99 000 000 000 000 000 000 000 000 -99 000 000 -99 -99 -99 -99 000 000 000 -99 -99 -99 -99 -99
000 -99 -99 -99 -99 000 000 -99 -99 -99 000 000 000 000 000 000 -99 000 000 -99 -99 -99 -99 -99 000 000 -99 -99 -99 -99 000
000 -99 -99 -99 -99 -99 -99 -99 -99 -99 000 000 000 000 000 -99 000 000 000 -99 -99 -99 -99 000 -99 -99 000 000 -99 -99 000
000 -99 -99 -99 -99 -99 -99 -99 -99 -99 000 000 000 000 000 000 000 000 000 -99 -99 -99 -99 000 -99 -99 000 000 -99 -99 000
000 -99 -99 -99 -99 -99 -99 -99 -99 000 000 000 000 000 000 000 -99 -99 000 000 -99 -99 -99 -99 -99 -99 000 000 -99 -99 001
-99 -99 -99 -99 -99 -99 -99 -99 000 000 000 000 000 000 000 -99 -99 000 000 -99 -99 -99 -99 -99 000 -99 000 000 -99 -99 000
-99 -99 -99 -99 -99 -99 -99 -99 000 000 000 000 -99 000 000 -99 -99 000 000 -99 000 000 000 000 -99 -99 000 000 -99 -99 000
-99 -99 -99 -99 -99 -99 -99 -99 000 -99 000 000 000 000 000 -99 000 000 000 -99 000 000 -99 -99 -99 -99 -99 000 -99 -99 000
-99 -99 -99 -99 -99 -99 -99 -99 -99 -99 -99 -99 000 000 000 -99 -99 -99 000 000 000 000 -99 -99 -99 -99 000 -99 -99 -99 -99
-99 -99 -99 -99 -99 -99 -99 -99 -99 -99 -99 -99 000 000 -99 -99 -99 -99 000 000 000 -99 -99 -99 -99 -99 -99 -99 -99 -99 -99
-99 -99 -99 -99 -99 -99 -99 -99 -99 -99 -99 -99 -99 -99 -99 -99 -99 000 000 000 000 000 -99 -99 -99 -99 -99 -99 -99 -99 -99
-99 -99 -99 -99 -99 -99 -99 -99 -99 -99 -99 -99 -99 -99 -99 -99 -99 000 000 000 -99 000 -99 -99 -99 -99 -99 -99 000 -99 -99
-99 -99 -99 -99 -99 -99 -99 -99 -99 -99 -99 -99 -99 -99 -99 000 -99 000 -99 -99 -99 -99 -99 -99 -99 -99 -99 000 000 -99 -99
